38435 40878 
38319 40886 
38815 40616 
36816 41687 
39467 40090 
36608 41719 
37725 41369 
36958 41599 
35673 41968 
37517 41401 
38252 40927 
38469 40874 
36169 41817 
38611 40786 
37078 41499 
36377 41785 
39263 40260 
37286 41467 
